c CNF file corresponding to a (partial) station packing problem.
p cnf 5234 229
1 2 3 4 5 6 7 8 9 10 11 12 13 14 0
-1 -2 0
-1 -3 0
-1 -4 0
-1 -5 0
-1 -6 0
-1 -7 0
-1 -8 0
-1 -9 0
-1 -10 0
-1 -11 0
-1 -12 0
-1 -13 0
-1 -14 0
-2 -3 0
-2 -4 0
-2 -5 0
-2 -6 0
-2 -7 0
-2 -8 0
-2 -9 0
-2 -10 0
-2 -11 0
-2 -12 0
-2 -13 0
-2 -14 0
-3 -4 0
-3 -5 0
-3 -6 0
-3 -7 0
-3 -8 0
-3 -9 0
-3 -10 0
-3 -11 0
-3 -12 0
-3 -13 0
-3 -14 0
-4 -5 0
-4 -6 0
-4 -7 0
-4 -8 0
-4 -9 0
-4 -10 0
-4 -11 0
-4 -12 0
-4 -13 0
-4 -14 0
-5 -6 0
-5 -7 0
-5 -8 0
-5 -9 0
-5 -10 0
-5 -11 0
-5 -12 0
-5 -13 0
-5 -14 0
-6 -7 0
-6 -8 0
-6 -9 0
-6 -10 0
-6 -11 0
-6 -12 0
-6 -13 0
-6 -14 0
-7 -8 0
-7 -9 0
-7 -10 0
-7 -11 0
-7 -12 0
-7 -13 0
-7 -14 0
-8 -9 0
-8 -10 0
-8 -11 0
-8 -12 0
-8 -13 0
-8 -14 0
-9 -10 0
-9 -11 0
-9 -12 0
-9 -13 0
-9 -14 0
-10 -11 0
-10 -12 0
-10 -13 0
-10 -14 0
-11 -12 0
-11 -13 0
-11 -14 0
-12 -13 0
-12 -14 0
-13 -14 0
5218 5219 5220 5221 5222 5223 5224 5225 5226 5227 5228 5229 5230 5231 5232 5233 5234 0
-5218 -5219 0
-5218 -5220 0
-5218 -5221 0
-5218 -5222 0
-5218 -5223 0
-5218 -5224 0
-5218 -5225 0
-5218 -5226 0
-5218 -5227 0
-5218 -5228 0
-5218 -5229 0
-5218 -5230 0
-5218 -5231 0
-5218 -5232 0
-5218 -5233 0
-5218 -5234 0
-5219 -5220 0
-5219 -5221 0
-5219 -5222 0
-5219 -5223 0
-5219 -5224 0
-5219 -5225 0
-5219 -5226 0
-5219 -5227 0
-5219 -5228 0
-5219 -5229 0
-5219 -5230 0
-5219 -5231 0
-5219 -5232 0
-5219 -5233 0
-5219 -5234 0
-5220 -5221 0
-5220 -5222 0
-5220 -5223 0
-5220 -5224 0
-5220 -5225 0
-5220 -5226 0
-5220 -5227 0
-5220 -5228 0
-5220 -5229 0
-5220 -5230 0
-5220 -5231 0
-5220 -5232 0
-5220 -5233 0
-5220 -5234 0
-5221 -5222 0
-5221 -5223 0
-5221 -5224 0
-5221 -5225 0
-5221 -5226 0
-5221 -5227 0
-5221 -5228 0
-5221 -5229 0
-5221 -5230 0
-5221 -5231 0
-5221 -5232 0
-5221 -5233 0
-5221 -5234 0
-5222 -5223 0
-5222 -5224 0
-5222 -5225 0
-5222 -5226 0
-5222 -5227 0
-5222 -5228 0
-5222 -5229 0
-5222 -5230 0
-5222 -5231 0
-5222 -5232 0
-5222 -5233 0
-5222 -5234 0
-5223 -5224 0
-5223 -5225 0
-5223 -5226 0
-5223 -5227 0
-5223 -5228 0
-5223 -5229 0
-5223 -5230 0
-5223 -5231 0
-5223 -5232 0
-5223 -5233 0
-5223 -5234 0
-5224 -5225 0
-5224 -5226 0
-5224 -5227 0
-5224 -5228 0
-5224 -5229 0
-5224 -5230 0
-5224 -5231 0
-5224 -5232 0
-5224 -5233 0
-5224 -5234 0
-5225 -5226 0
-5225 -5227 0
-5225 -5228 0
-5225 -5229 0
-5225 -5230 0
-5225 -5231 0
-5225 -5232 0
-5225 -5233 0
-5225 -5234 0
-5226 -5227 0
-5226 -5228 0
-5226 -5229 0
-5226 -5230 0
-5226 -5231 0
-5226 -5232 0
-5226 -5233 0
-5226 -5234 0
-5227 -5228 0
-5227 -5229 0
-5227 -5230 0
-5227 -5231 0
-5227 -5232 0
-5227 -5233 0
-5227 -5234 0
-5228 -5229 0
-5228 -5230 0
-5228 -5231 0
-5228 -5232 0
-5228 -5233 0
-5228 -5234 0
-5229 -5230 0
-5229 -5231 0
-5229 -5232 0
-5229 -5233 0
-5229 -5234 0
-5230 -5231 0
-5230 -5232 0
-5230 -5233 0
-5230 -5234 0
-5231 -5232 0
-5231 -5233 0
-5231 -5234 0
-5232 -5233 0
-5232 -5234 0
-5233 -5234 0
